%%% Weights
weight_CS_SC = 1  ;
weight_CS_SS =  1 ;
weight_CS_SDS = 2  ;
weight_CS_SPF =  3 ;
weight_CS_DI =  1 ;
weight_CS_PT =  1 ;
weight_CS_PDT =  2 ;
weight_PE =  2 ;
weight_PE2MHB =  2 ;
weight_PE2MT =  2 ;
weight_CS_PM =  1 ;
weight_DCP_S =  1 ;
weight_DEP_S =  2 ;
weight_DCP_H =  1 ;
weight_DEP_H =  2 ;
weight_CAS_DAC =  1 ;
weight_CAS_DC =  0 ;
weight_CAS_DE = 1  ;
weight_CAS_DMA =  1 ;
weight_CAS_DRN =  1 ;
weight_CAS_DR =  1 ;
weight_SE2OC =  1 ;
weight_SE =  2 ;
weight_SX2OC =  1 ;
weight_SX =  3 ;
weight_CAS_MH = 1  ;
weight_CAS_MP = 0  ;
weight_MC_O =  0 ;
weight_MC_I = 1  ;
weight_PT2MHB_PDT2MHB =  0 ;
weight_OC =  0 ;

%% Max
max_CS_SC =  5 ;
max_CS_SS =  15 ;
max_CS_SDS =  10 ;
max_CS_SPF =  1 ;
max_CS_DI =  15 ;
max_CS_PT =  30 ;
max_CS_PDT =  25 ;
max_PE =  1 ;
max_PE2MHB =  5 ;
max_PE2MT =  5 ;
max_CS_PM =  15 ;
max_DCP_S =  5 ;
max_DEP_S =  5 ;
max_DCP_H =  5 ;
max_DEP_H = 5  ;
max_CAS_DAC =  15 ;
max_CAS_DC =  10 ;
max_CAS_DE = 15  ;
max_CAS_DMA =  5 ;
max_CAS_DRN =  20 ;
max_CAS_DR = 25  ;
max_SE2OC =  50 ;
max_SE = 5  ;
max_SX2OC = 10  ;
max_SX =  5 ;
max_CAS_MH =  20 ;
max_CAS_MP = 10  ;
max_MC_O = 5  ;
max_MC_I =  1 ;
max_PT2MHB_PDT2MHB =  25 ;
max_OC =  10 ;

%%Min
min_CS_SC =  1 ;
min_CS_SS =  0 ;
min_CS_SDS =  0 ;
min_CS_SPF =  0 ;
min_CS_DI =  0 ;
min_CS_PT =  0 ;
min_CS_PDT =  0 ;
min_PE =  0 ;
min_PE2MHB =  0 ;
min_PE2MT =  0 ;
min_CS_PM =  0 ;
min_DCP_S =  0 ;
min_DEP_S =  0 ;
min_DCP_H =  0 ;
min_DEP_H = 0  ;
min_CAS_DAC =  0 ;
min_CAS_DC =  0 ;
min_CAS_DE = 0  ;
min_CAS_DMA =  0 ;
min_CAS_DRN = 0  ;
min_CAS_DR =  0 ;
min_SE2OC =  0 ;
min_SE =  0 ;
min_SX2OC = 0  ;
min_SX =  0 ;
min_CAS_MH =  0 ;
min_CAS_MP = 0  ;
min_MC_O = 0  ;
min_MC_I =  0 ;
min_PT2MHB_PDT2MHB =  0 ;
min_OC = 0  ;


